p cep 129 1319
1 10
1 19
1 45
1 63
1 95
1 108
2 15
2 28
2 32
2 39
2 98
2 107
3 82
3 125
4 5
4 8
4 9
4 13
4 17
4 18
4 22
4 29
4 31
4 34
4 37
4 38
4 39
4 42
4 52
4 54
4 55
4 61
4 65
4 69
4 71
4 72
4 73
4 74
4 78
4 79
4 89
4 91
4 96
4 101
4 103
4 109
4 111
4 114
4 116
4 117
4 118
4 120
4 121
4 123
4 126
4 128
5 8
5 9
5 13
5 17
5 18
5 22
5 29
5 31
5 34
5 37
5 38
5 39
5 42
5 52
5 54
5 55
5 61
5 65
5 69
5 71
5 72
5 73
5 74
5 78
5 79
5 89
5 91
5 96
5 101
5 103
5 109
5 111
5 114
5 116
5 117
5 118
5 120
5 121
5 123
5 126
5 128
6 49
7 21
7 33
7 43
7 47
7 59
7 80
7 86
7 87
7 93
7 97
7 106
7 111
7 119
8 9
8 13
8 17
8 18
8 21
8 22
8 29
8 31
8 34
8 37
8 38
8 39
8 40
8 42
8 47
8 52
8 54
8 55
8 61
8 65
8 66
8 68
8 69
8 71
8 72
8 73
8 74
8 75
8 76
8 78
8 79
8 80
8 87
8 89
8 91
8 96
8 97
8 99
8 101
8 103
8 105
8 109
8 110
8 111
8 112
8 114
8 115
8 116
8 117
8 118
8 120
8 121
8 123
8 126
8 128
9 13
9 17
9 21
9 22
9 29
9 31
9 34
9 37
9 38
9 40
9 42
9 47
9 54
9 61
9 65
9 69
9 72
9 78
9 80
9 87
9 89
9 91
9 96
9 97
9 101
9 103
9 111
9 115
9 116
9 117
9 118
9 121
9 128
10 19
10 45
10 63
10 95
10 108
12 36
12 51
12 58
12 62
12 102
12 113
12 129
13 17
13 18
13 21
13 22
13 27
13 29
13 31
13 34
13 37
13 38
13 39
13 40
13 42
13 52
13 54
13 55
13 61
13 65
13 66
13 68
13 69
13 71
13 72
13 73
13 75
13 78
13 79
13 89
13 91
13 96
13 99
13 101
13 103
13 104
13 109
13 110
13 111
13 112
13 114
13 116
13 117
13 118
13 120
13 121
13 123
13 126
13 128
14 27
14 39
14 52
14 55
14 74
14 75
14 104
14 109
14 110
14 120
14 123
14 126
15 28
15 32
15 52
15 98
15 107
16 24
16 45
16 50
16 90
17 22
17 27
17 29
17 31
17 34
17 37
17 38
17 39
17 40
17 42
17 52
17 54
17 55
17 61
17 65
17 68
17 69
17 71
17 72
17 73
17 75
17 76
17 78
17 89
17 91
17 96
17 97
17 101
17 103
17 104
17 109
17 110
17 111
17 112
17 114
17 116
17 117
17 118
17 120
17 126
17 128
18 29
18 61
18 69
18 71
18 89
18 91
18 101
18 103
18 111
18 116
18 117
18 118
18 128
19 45
19 63
19 95
19 108
20 70
21 22
21 30
21 37
21 40
21 42
21 47
21 54
21 61
21 67
21 69
21 72
21 80
21 86
21 87
21 89
21 91
21 96
21 97
21 101
21 103
21 105
21 111
21 115
21 117
21 118
21 121
21 128
22 27
22 29
22 31
22 34
22 37
22 38
22 39
22 40
22 42
22 47
22 52
22 54
22 55
22 61
22 65
22 68
22 69
22 71
22 72
22 73
22 75
22 78
22 79
22 80
22 87
22 89
22 91
22 92
22 96
22 97
22 101
22 103
22 104
22 109
22 110
22 111
22 112
22 114
22 116
22 117
22 118
22 120
22 121
22 126
22 128
23 46
23 100
24 45
24 50
24 90
25 88
26 59
26 106
26 119
27 29
27 37
27 39
27 42
27 52
27 54
27 55
27 69
27 74
27 75
27 89
27 91
27 101
27 103
27 104
27 109
27 110
27 117
27 120
27 123
27 126
27 128
28 32
28 37
28 52
28 98
28 107
29 31
29 34
29 37
29 38
29 39
29 40
29 42
29 47
29 52
29 54
29 55
29 61
29 65
29 68
29 69
29 71
29 72
29 73
29 74
29 75
29 76
29 78
29 79
29 80
29 87
29 89
29 91
29 96
29 97
29 99
29 101
29 103
29 104
29 109
29 110
29 111
29 112
29 114
29 115
29 116
29 117
29 118
29 120
29 121
29 123
29 126
29 128
30 40
30 47
30 80
30 87
30 97
30 105
30 111
30 121
31 34
31 37
31 38
31 39
31 40
31 42
31 47
31 52
31 54
31 55
31 61
31 65
31 68
31 69
31 71
31 72
31 73
31 75
31 76
31 78
31 79
31 89
31 91
31 92
31 96
31 101
31 103
31 104
31 109
31 110
31 111
31 112
31 114
31 116
31 117
31 118
31 120
31 126
31 128
32 39
32 52
32 98
32 107
32 110
33 59
33 81
33 86
33 124
34 37
34 38
34 39
34 42
34 52
34 54
34 55
34 61
34 65
34 69
34 71
34 72
34 73
34 78
34 89
34 91
34 96
34 101
34 103
34 109
34 111
34 112
34 114
34 116
34 117
34 118
34 120
34 123
34 126
34 128
35 48
35 77
35 106
35 119
36 51
36 58
36 62
36 102
36 113
36 129
37 38
37 39
37 40
37 42
37 47
37 52
37 54
37 55
37 61
37 65
37 68
37 69
37 71
37 72
37 73
37 75
37 76
37 78
37 79
37 80
37 87
37 89
37 91
37 92
37 96
37 97
37 99
37 101
37 103
37 109
37 110
37 111
37 112
37 114
37 116
37 117
37 118
37 120
37 121
37 123
37 126
37 128
38 39
38 42
38 52
38 54
38 55
38 61
38 65
38 69
38 71
38 72
38 73
38 74
38 76
38 78
38 79
38 89
38 91
38 96
38 101
38 103
38 109
38 111
38 114
38 116
38 117
38 118
38 120
38 123
38 126
38 128
39 42
39 52
39 54
39 55
39 61
39 65
39 69
39 71
39 72
39 73
39 74
39 75
39 89
39 91
39 96
39 101
39 103
39 104
39 107
39 109
39 110
39 112
39 114
39 116
39 117
39 118
39 120
39 123
39 126
39 128
40 42
40 47
40 54
40 61
40 65
40 69
40 72
40 78
40 80
40 85
40 87
40 89
40 91
40 96
40 97
40 101
40 103
40 105
40 106
40 111
40 117
40 118
40 121
40 128
42 47
42 52
42 54
42 55
42 61
42 65
42 68
42 69
42 71
42 72
42 73
42 74
42 75
42 76
42 78
42 79
42 80
42 87
42 89
42 91
42 96
42 97
42 101
42 103
42 104
42 109
42 110
42 111
42 112
42 114
42 116
42 117
42 118
42 120
42 121
42 123
42 126
42 128
43 47
43 59
43 80
43 86
43 87
43 93
43 106
43 111
44 122
45 50
45 63
45 90
45 95
45 108
46 100
47 54
47 61
47 67
47 69
47 72
47 80
47 86
47 87
47 89
47 91
47 96
47 97
47 105
47 111
47 118
47 121
47 128
48 77
50 90
51 58
51 62
51 102
51 113
51 129
52 54
52 55
52 61
52 65
52 69
52 71
52 72
52 73
52 74
52 75
52 89
52 91
52 96
52 98
52 101
52 103
52 104
52 109
52 110
52 114
52 118
52 120
52 123
52 126
52 128
53 84
54 55
54 61
54 65
54 66
54 68
54 69
54 71
54 72
54 73
54 76
54 78
54 79
54 80
54 87
54 89
54 91
54 96
54 97
54 101
54 103
54 109
54 110
54 111
54 112
54 114
54 115
54 116
54 117
54 118
54 120
54 121
54 123
54 126
54 128
55 61
55 65
55 69
55 71
55 72
55 74
55 75
55 89
55 91
55 96
55 101
55 103
55 104
55 109
55 110
55 114
55 117
55 118
55 120
55 123
55 126
55 128
57 94
58 62
58 102
58 113
58 129
59 77
59 86
59 93
59 106
59 119
60 72
61 65
61 68
61 69
61 71
61 72
61 73
61 74
61 75
61 76
61 78
61 79
61 80
61 87
61 89
61 91
61 96
61 97
61 101
61 103
61 104
61 105
61 109
61 110
61 111
61 112
61 114
61 116
61 117
61 118
61 120
61 121
61 126
61 128
62 102
62 113
62 129
63 95
63 108
64 83
64 94
65 68
65 69
65 71
65 72
65 73
65 76
65 78
65 89
65 91
65 96
65 101
65 103
65 109
65 114
65 116
65 117
65 118
65 120
65 126
65 128
66 101
66 103
66 111
66 128
67 80
67 87
67 97
67 111
67 115
67 121
68 69
68 71
68 72
68 73
68 76
68 78
68 79
68 89
68 91
68 96
68 101
68 103
68 114
68 117
68 118
68 128
69 71
69 72
69 73
69 75
69 76
69 78
69 79
69 80
69 87
69 89
69 91
69 96
69 97
69 101
69 103
69 104
69 109
69 110
69 111
69 112
69 114
69 116
69 117
69 118
69 120
69 123
69 126
69 128
71 72
71 73
71 76
71 78
71 79
71 89
71 91
71 92
71 96
71 101
71 103
71 109
71 111
71 112
71 114
71 116
71 117
71 118
71 120
71 126
71 128
72 73
72 74
72 75
72 76
72 78
72 79
72 80
72 87
72 89
72 91
72 92
72 96
72 97
72 99
72 101
72 103
72 104
72 105
72 109
72 110
72 111
72 112
72 114
72 115
72 116
72 117
72 118
72 120
72 121
72 123
72 126
72 128
73 78
73 79
73 89
73 91
73 96
73 101
73 103
73 111
73 112
73 114
73 116
73 117
73 118
73 120
73 128
74 75
74 91
74 104
74 109
74 110
74 120
74 123
74 126
75 91
75 101
75 104
75 109
75 110
75 120
75 123
75 126
76 89
76 91
76 92
76 96
76 101
76 103
76 114
76 116
76 117
76 118
76 128
77 119
78 79
78 89
78 91
78 96
78 101
78 103
78 112
78 114
78 116
78 117
78 118
78 128
79 89
79 91
79 96
79 101
79 103
79 114
79 116
79 117
79 118
79 128
80 86
80 87
80 89
80 91
80 96
80 97
80 103
80 105
80 111
80 117
80 118
80 121
80 128
81 86
81 124
82 125
83 94
86 87
86 93
86 97
86 106
86 111
86 119
86 121
86 124
87 89
87 91
87 96
87 97
87 103
87 105
87 111
87 115
87 118
87 121
87 128
89 91
89 96
89 97
89 99
89 101
89 103
89 105
89 109
89 110
89 111
89 112
89 114
89 116
89 117
89 118
89 120
89 121
89 123
89 126
89 128
91 92
91 96
91 97
91 99
91 101
91 103
91 104
91 105
91 109
91 110
91 111
91 112
91 114
91 116
91 117
91 118
91 120
91 121
91 123
91 126
91 128
92 117
92 128
93 106
93 111
93 119
95 108
96 97
96 99
96 101
96 103
96 109
96 111
96 112
96 114
96 115
96 116
96 117
96 118
96 120
96 121
96 123
96 126
96 128
97 103
97 105
97 111
97 115
97 117
97 118
97 121
97 128
98 107
99 101
99 103
99 114
99 117
99 128
101 103
101 104
101 109
101 110
101 111
101 112
101 114
101 116
101 117
101 118
101 120
101 121
101 123
101 126
101 128
102 113
102 129
103 109
103 110
103 111
103 112
103 114
103 116
103 117
103 118
103 120
103 121
103 123
103 126
103 128
104 109
104 110
104 120
104 123
104 126
105 111
105 118
105 121
105 122
105 128
106 119
109 110
109 114
109 117
109 118
109 120
109 123
109 126
109 128
110 120
110 123
110 126
111 116
111 117
111 118
111 121
111 128
112 114
112 117
112 118
112 128
113 129
114 116
114 117
114 118
114 120
114 126
114 128
115 117
115 118
115 128
116 117
116 118
116 128
117 118
117 120
117 121
117 128
118 120
118 121
118 128
120 123
120 126
120 128
121 128
123 126
123 128
126 128
